Route #1: 1 8 31 26 19 15 44 25 28 17 11 4 1
Route #2: 1 48 32 42 34 23 13 39 10 24 36 16 1
Route #3: 1 41 50 35 45 20 18 49 33 1
Route #4: 1 7 29 3 6 37 1
Route #5: 1 43 40 27 14 2 1
Route #6: 1 46 22 21 9 12 38 5 30 1
Route #7: 1 47 1
cost 917.2828385225736
